# spn_formatted = true
# restart = default

shc_freq_scan = false
shc_alpha = 1
shc_beta = 2
shc_gamma = 3

# kpath = true
# kpath_task = bands+shc
# kpath_bands_colour = shc
# kpath_num_points = 400
# kubo_adpt_smr = false
# kubo_smr_fixed_en_width = 1
# fermi_energy = 6.9

# begin kpoint_path
# G  0.00  0.00  0.00    Z  0.50  0.50  0.50
# Z  0.50  0.50  0.50    F  0.50  0.50  0.00
# F  0.50  0.50  0.00    G  0.00  0.00  0.00
# G  0.00  0.00  0.00    L  0.50  0.00  0.00
# end kpoint_path

# kslice = true
# kslice_task = shc+fermi_lines
# kslice_2dkmesh = 400
# kslice_corner = 0.0  0.0  0.0
# kslice_b1 = 1.00  0.00  0.00
# kslice_b2 = 0.3535533905932738  1.0606601717798214  0.00

berry = true
berry_task = eval_shc
berry_kmesh = 10 # 25
berry_curv_unit = ang2
# berry_curv_adpt_kmesh = 5
# berry_curv_adpt_kmesh_thresh = 100.0

fermi_energy_min = -7.0 
fermi_energy_max = 13.0 
fermi_energy_step = 0.1

num_bands         =   90
num_wann          =   40

dis_win_min       =  -8.0d0
dis_win_max       =  14.0d0
dis_froz_min      =  -8.0d0
dis_froz_max      =  14.0d0
# dis_num_iter      =  8000
dis_conv_tol      = 1.0e-10
conv_tol          = 1.0e-10
conv_window       = 10
num_iter          = 32000
guiding_centres = true

spinors = true
begin projections
Sb: s;p
Te: s;p
end projections

begin unit_cell_cart
Ang
 2.16641830 -1.25078219 10.44963915
 0.00000000  2.50156438 10.44963915
-2.16641830 -1.25078219 10.44963915
end unit_cell_cart

begin atoms_cart
Ang
 Te 0.00000000 0.00000000  0.000000000
 Te 0.00000000 0.00000000  6.764212975
 Sb 0.00000000 0.00000000 12.435409965
 Sb 0.00000000 0.00000000 18.913507485
 Te 0.00000000 0.00000000 24.584704485
end atoms_cart
 
# kmesh_tol = 0.00001
mp_grid           = 8  8  8

begin kpoints
 0.00000000 0.00000000 0.00000000
 0.00000000 0.00000000 0.12500000
 0.00000000 0.00000000 0.25000000
 0.00000000 0.00000000 0.37500000
 0.00000000 0.00000000 0.50000000
 0.00000000 0.00000000 0.62500000
 0.00000000 0.00000000 0.75000000
 0.00000000 0.00000000 0.87500000
 0.00000000 0.12500000 0.00000000
 0.00000000 0.12500000 0.12500000
 0.00000000 0.12500000 0.25000000
 0.00000000 0.12500000 0.37500000
 0.00000000 0.12500000 0.50000000
 0.00000000 0.12500000 0.62500000
 0.00000000 0.12500000 0.75000000
 0.00000000 0.12500000 0.87500000
 0.00000000 0.25000000 0.00000000
 0.00000000 0.25000000 0.12500000
 0.00000000 0.25000000 0.25000000
 0.00000000 0.25000000 0.37500000
 0.00000000 0.25000000 0.50000000
 0.00000000 0.25000000 0.62500000
 0.00000000 0.25000000 0.75000000
 0.00000000 0.25000000 0.87500000
 0.00000000 0.37500000 0.00000000
 0.00000000 0.37500000 0.12500000
 0.00000000 0.37500000 0.25000000
 0.00000000 0.37500000 0.37500000
 0.00000000 0.37500000 0.50000000
 0.00000000 0.37500000 0.62500000
 0.00000000 0.37500000 0.75000000
 0.00000000 0.37500000 0.87500000
 0.00000000 0.50000000 0.00000000
 0.00000000 0.50000000 0.12500000
 0.00000000 0.50000000 0.25000000
 0.00000000 0.50000000 0.37500000
 0.00000000 0.50000000 0.50000000
 0.00000000 0.50000000 0.62500000
 0.00000000 0.50000000 0.75000000
 0.00000000 0.50000000 0.87500000
 0.00000000 0.62500000 0.00000000
 0.00000000 0.62500000 0.12500000
 0.00000000 0.62500000 0.25000000
 0.00000000 0.62500000 0.37500000
 0.00000000 0.62500000 0.50000000
 0.00000000 0.62500000 0.62500000
 0.00000000 0.62500000 0.75000000
 0.00000000 0.62500000 0.87500000
 0.00000000 0.75000000 0.00000000
 0.00000000 0.75000000 0.12500000
 0.00000000 0.75000000 0.25000000
 0.00000000 0.75000000 0.37500000
 0.00000000 0.75000000 0.50000000
 0.00000000 0.75000000 0.62500000
 0.00000000 0.75000000 0.75000000
 0.00000000 0.75000000 0.87500000
 0.00000000 0.87500000 0.00000000
 0.00000000 0.87500000 0.12500000
 0.00000000 0.87500000 0.25000000
 0.00000000 0.87500000 0.37500000
 0.00000000 0.87500000 0.50000000
 0.00000000 0.87500000 0.62500000
 0.00000000 0.87500000 0.75000000
 0.00000000 0.87500000 0.87500000
 0.12500000 0.00000000 0.00000000
 0.12500000 0.00000000 0.12500000
 0.12500000 0.00000000 0.25000000
 0.12500000 0.00000000 0.37500000
 0.12500000 0.00000000 0.50000000
 0.12500000 0.00000000 0.62500000
 0.12500000 0.00000000 0.75000000
 0.12500000 0.00000000 0.87500000
 0.12500000 0.12500000 0.00000000
 0.12500000 0.12500000 0.12500000
 0.12500000 0.12500000 0.25000000
 0.12500000 0.12500000 0.37500000
 0.12500000 0.12500000 0.50000000
 0.12500000 0.12500000 0.62500000
 0.12500000 0.12500000 0.75000000
 0.12500000 0.12500000 0.87500000
 0.12500000 0.25000000 0.00000000
 0.12500000 0.25000000 0.12500000
 0.12500000 0.25000000 0.25000000
 0.12500000 0.25000000 0.37500000
 0.12500000 0.25000000 0.50000000
 0.12500000 0.25000000 0.62500000
 0.12500000 0.25000000 0.75000000
 0.12500000 0.25000000 0.87500000
 0.12500000 0.37500000 0.00000000
 0.12500000 0.37500000 0.12500000
 0.12500000 0.37500000 0.25000000
 0.12500000 0.37500000 0.37500000
 0.12500000 0.37500000 0.50000000
 0.12500000 0.37500000 0.62500000
 0.12500000 0.37500000 0.75000000
 0.12500000 0.37500000 0.87500000
 0.12500000 0.50000000 0.00000000
 0.12500000 0.50000000 0.12500000
 0.12500000 0.50000000 0.25000000
 0.12500000 0.50000000 0.37500000
 0.12500000 0.50000000 0.50000000
 0.12500000 0.50000000 0.62500000
 0.12500000 0.50000000 0.75000000
 0.12500000 0.50000000 0.87500000
 0.12500000 0.62500000 0.00000000
 0.12500000 0.62500000 0.12500000
 0.12500000 0.62500000 0.25000000
 0.12500000 0.62500000 0.37500000
 0.12500000 0.62500000 0.50000000
 0.12500000 0.62500000 0.62500000
 0.12500000 0.62500000 0.75000000
 0.12500000 0.62500000 0.87500000
 0.12500000 0.75000000 0.00000000
 0.12500000 0.75000000 0.12500000
 0.12500000 0.75000000 0.25000000
 0.12500000 0.75000000 0.37500000
 0.12500000 0.75000000 0.50000000
 0.12500000 0.75000000 0.62500000
 0.12500000 0.75000000 0.75000000
 0.12500000 0.75000000 0.87500000
 0.12500000 0.87500000 0.00000000
 0.12500000 0.87500000 0.12500000
 0.12500000 0.87500000 0.25000000
 0.12500000 0.87500000 0.37500000
 0.12500000 0.87500000 0.50000000
 0.12500000 0.87500000 0.62500000
 0.12500000 0.87500000 0.75000000
 0.12500000 0.87500000 0.87500000
 0.25000000 0.00000000 0.00000000
 0.25000000 0.00000000 0.12500000
 0.25000000 0.00000000 0.25000000
 0.25000000 0.00000000 0.37500000
 0.25000000 0.00000000 0.50000000
 0.25000000 0.00000000 0.62500000
 0.25000000 0.00000000 0.75000000
 0.25000000 0.00000000 0.87500000
 0.25000000 0.12500000 0.00000000
 0.25000000 0.12500000 0.12500000
 0.25000000 0.12500000 0.25000000
 0.25000000 0.12500000 0.37500000
 0.25000000 0.12500000 0.50000000
 0.25000000 0.12500000 0.62500000
 0.25000000 0.12500000 0.75000000
 0.25000000 0.12500000 0.87500000
 0.25000000 0.25000000 0.00000000
 0.25000000 0.25000000 0.12500000
 0.25000000 0.25000000 0.25000000
 0.25000000 0.25000000 0.37500000
 0.25000000 0.25000000 0.50000000
 0.25000000 0.25000000 0.62500000
 0.25000000 0.25000000 0.75000000
 0.25000000 0.25000000 0.87500000
 0.25000000 0.37500000 0.00000000
 0.25000000 0.37500000 0.12500000
 0.25000000 0.37500000 0.25000000
 0.25000000 0.37500000 0.37500000
 0.25000000 0.37500000 0.50000000
 0.25000000 0.37500000 0.62500000
 0.25000000 0.37500000 0.75000000
 0.25000000 0.37500000 0.87500000
 0.25000000 0.50000000 0.00000000
 0.25000000 0.50000000 0.12500000
 0.25000000 0.50000000 0.25000000
 0.25000000 0.50000000 0.37500000
 0.25000000 0.50000000 0.50000000
 0.25000000 0.50000000 0.62500000
 0.25000000 0.50000000 0.75000000
 0.25000000 0.50000000 0.87500000
 0.25000000 0.62500000 0.00000000
 0.25000000 0.62500000 0.12500000
 0.25000000 0.62500000 0.25000000
 0.25000000 0.62500000 0.37500000
 0.25000000 0.62500000 0.50000000
 0.25000000 0.62500000 0.62500000
 0.25000000 0.62500000 0.75000000
 0.25000000 0.62500000 0.87500000
 0.25000000 0.75000000 0.00000000
 0.25000000 0.75000000 0.12500000
 0.25000000 0.75000000 0.25000000
 0.25000000 0.75000000 0.37500000
 0.25000000 0.75000000 0.50000000
 0.25000000 0.75000000 0.62500000
 0.25000000 0.75000000 0.75000000
 0.25000000 0.75000000 0.87500000
 0.25000000 0.87500000 0.00000000
 0.25000000 0.87500000 0.12500000
 0.25000000 0.87500000 0.25000000
 0.25000000 0.87500000 0.37500000
 0.25000000 0.87500000 0.50000000
 0.25000000 0.87500000 0.62500000
 0.25000000 0.87500000 0.75000000
 0.25000000 0.87500000 0.87500000
 0.37500000 0.00000000 0.00000000
 0.37500000 0.00000000 0.12500000
 0.37500000 0.00000000 0.25000000
 0.37500000 0.00000000 0.37500000
 0.37500000 0.00000000 0.50000000
 0.37500000 0.00000000 0.62500000
 0.37500000 0.00000000 0.75000000
 0.37500000 0.00000000 0.87500000
 0.37500000 0.12500000 0.00000000
 0.37500000 0.12500000 0.12500000
 0.37500000 0.12500000 0.25000000
 0.37500000 0.12500000 0.37500000
 0.37500000 0.12500000 0.50000000
 0.37500000 0.12500000 0.62500000
 0.37500000 0.12500000 0.75000000
 0.37500000 0.12500000 0.87500000
 0.37500000 0.25000000 0.00000000
 0.37500000 0.25000000 0.12500000
 0.37500000 0.25000000 0.25000000
 0.37500000 0.25000000 0.37500000
 0.37500000 0.25000000 0.50000000
 0.37500000 0.25000000 0.62500000
 0.37500000 0.25000000 0.75000000
 0.37500000 0.25000000 0.87500000
 0.37500000 0.37500000 0.00000000
 0.37500000 0.37500000 0.12500000
 0.37500000 0.37500000 0.25000000
 0.37500000 0.37500000 0.37500000
 0.37500000 0.37500000 0.50000000
 0.37500000 0.37500000 0.62500000
 0.37500000 0.37500000 0.75000000
 0.37500000 0.37500000 0.87500000
 0.37500000 0.50000000 0.00000000
 0.37500000 0.50000000 0.12500000
 0.37500000 0.50000000 0.25000000
 0.37500000 0.50000000 0.37500000
 0.37500000 0.50000000 0.50000000
 0.37500000 0.50000000 0.62500000
 0.37500000 0.50000000 0.75000000
 0.37500000 0.50000000 0.87500000
 0.37500000 0.62500000 0.00000000
 0.37500000 0.62500000 0.12500000
 0.37500000 0.62500000 0.25000000
 0.37500000 0.62500000 0.37500000
 0.37500000 0.62500000 0.50000000
 0.37500000 0.62500000 0.62500000
 0.37500000 0.62500000 0.75000000
 0.37500000 0.62500000 0.87500000
 0.37500000 0.75000000 0.00000000
 0.37500000 0.75000000 0.12500000
 0.37500000 0.75000000 0.25000000
 0.37500000 0.75000000 0.37500000
 0.37500000 0.75000000 0.50000000
 0.37500000 0.75000000 0.62500000
 0.37500000 0.75000000 0.75000000
 0.37500000 0.75000000 0.87500000
 0.37500000 0.87500000 0.00000000
 0.37500000 0.87500000 0.12500000
 0.37500000 0.87500000 0.25000000
 0.37500000 0.87500000 0.37500000
 0.37500000 0.87500000 0.50000000
 0.37500000 0.87500000 0.62500000
 0.37500000 0.87500000 0.75000000
 0.37500000 0.87500000 0.87500000
 0.50000000 0.00000000 0.00000000
 0.50000000 0.00000000 0.12500000
 0.50000000 0.00000000 0.25000000
 0.50000000 0.00000000 0.37500000
 0.50000000 0.00000000 0.50000000
 0.50000000 0.00000000 0.62500000
 0.50000000 0.00000000 0.75000000
 0.50000000 0.00000000 0.87500000
 0.50000000 0.12500000 0.00000000
 0.50000000 0.12500000 0.12500000
 0.50000000 0.12500000 0.25000000
 0.50000000 0.12500000 0.37500000
 0.50000000 0.12500000 0.50000000
 0.50000000 0.12500000 0.62500000
 0.50000000 0.12500000 0.75000000
 0.50000000 0.12500000 0.87500000
 0.50000000 0.25000000 0.00000000
 0.50000000 0.25000000 0.12500000
 0.50000000 0.25000000 0.25000000
 0.50000000 0.25000000 0.37500000
 0.50000000 0.25000000 0.50000000
 0.50000000 0.25000000 0.62500000
 0.50000000 0.25000000 0.75000000
 0.50000000 0.25000000 0.87500000
 0.50000000 0.37500000 0.00000000
 0.50000000 0.37500000 0.12500000
 0.50000000 0.37500000 0.25000000
 0.50000000 0.37500000 0.37500000
 0.50000000 0.37500000 0.50000000
 0.50000000 0.37500000 0.62500000
 0.50000000 0.37500000 0.75000000
 0.50000000 0.37500000 0.87500000
 0.50000000 0.50000000 0.00000000
 0.50000000 0.50000000 0.12500000
 0.50000000 0.50000000 0.25000000
 0.50000000 0.50000000 0.37500000
 0.50000000 0.50000000 0.50000000
 0.50000000 0.50000000 0.62500000
 0.50000000 0.50000000 0.75000000
 0.50000000 0.50000000 0.87500000
 0.50000000 0.62500000 0.00000000
 0.50000000 0.62500000 0.12500000
 0.50000000 0.62500000 0.25000000
 0.50000000 0.62500000 0.37500000
 0.50000000 0.62500000 0.50000000
 0.50000000 0.62500000 0.62500000
 0.50000000 0.62500000 0.75000000
 0.50000000 0.62500000 0.87500000
 0.50000000 0.75000000 0.00000000
 0.50000000 0.75000000 0.12500000
 0.50000000 0.75000000 0.25000000
 0.50000000 0.75000000 0.37500000
 0.50000000 0.75000000 0.50000000
 0.50000000 0.75000000 0.62500000
 0.50000000 0.75000000 0.75000000
 0.50000000 0.75000000 0.87500000
 0.50000000 0.87500000 0.00000000
 0.50000000 0.87500000 0.12500000
 0.50000000 0.87500000 0.25000000
 0.50000000 0.87500000 0.37500000
 0.50000000 0.87500000 0.50000000
 0.50000000 0.87500000 0.62500000
 0.50000000 0.87500000 0.75000000
 0.50000000 0.87500000 0.87500000
 0.62500000 0.00000000 0.00000000
 0.62500000 0.00000000 0.12500000
 0.62500000 0.00000000 0.25000000
 0.62500000 0.00000000 0.37500000
 0.62500000 0.00000000 0.50000000
 0.62500000 0.00000000 0.62500000
 0.62500000 0.00000000 0.75000000
 0.62500000 0.00000000 0.87500000
 0.62500000 0.12500000 0.00000000
 0.62500000 0.12500000 0.12500000
 0.62500000 0.12500000 0.25000000
 0.62500000 0.12500000 0.37500000
 0.62500000 0.12500000 0.50000000
 0.62500000 0.12500000 0.62500000
 0.62500000 0.12500000 0.75000000
 0.62500000 0.12500000 0.87500000
 0.62500000 0.25000000 0.00000000
 0.62500000 0.25000000 0.12500000
 0.62500000 0.25000000 0.25000000
 0.62500000 0.25000000 0.37500000
 0.62500000 0.25000000 0.50000000
 0.62500000 0.25000000 0.62500000
 0.62500000 0.25000000 0.75000000
 0.62500000 0.25000000 0.87500000
 0.62500000 0.37500000 0.00000000
 0.62500000 0.37500000 0.12500000
 0.62500000 0.37500000 0.25000000
 0.62500000 0.37500000 0.37500000
 0.62500000 0.37500000 0.50000000
 0.62500000 0.37500000 0.62500000
 0.62500000 0.37500000 0.75000000
 0.62500000 0.37500000 0.87500000
 0.62500000 0.50000000 0.00000000
 0.62500000 0.50000000 0.12500000
 0.62500000 0.50000000 0.25000000
 0.62500000 0.50000000 0.37500000
 0.62500000 0.50000000 0.50000000
 0.62500000 0.50000000 0.62500000
 0.62500000 0.50000000 0.75000000
 0.62500000 0.50000000 0.87500000
 0.62500000 0.62500000 0.00000000
 0.62500000 0.62500000 0.12500000
 0.62500000 0.62500000 0.25000000
 0.62500000 0.62500000 0.37500000
 0.62500000 0.62500000 0.50000000
 0.62500000 0.62500000 0.62500000
 0.62500000 0.62500000 0.75000000
 0.62500000 0.62500000 0.87500000
 0.62500000 0.75000000 0.00000000
 0.62500000 0.75000000 0.12500000
 0.62500000 0.75000000 0.25000000
 0.62500000 0.75000000 0.37500000
 0.62500000 0.75000000 0.50000000
 0.62500000 0.75000000 0.62500000
 0.62500000 0.75000000 0.75000000
 0.62500000 0.75000000 0.87500000
 0.62500000 0.87500000 0.00000000
 0.62500000 0.87500000 0.12500000
 0.62500000 0.87500000 0.25000000
 0.62500000 0.87500000 0.37500000
 0.62500000 0.87500000 0.50000000
 0.62500000 0.87500000 0.62500000
 0.62500000 0.87500000 0.75000000
 0.62500000 0.87500000 0.87500000
 0.75000000 0.00000000 0.00000000
 0.75000000 0.00000000 0.12500000
 0.75000000 0.00000000 0.25000000
 0.75000000 0.00000000 0.37500000
 0.75000000 0.00000000 0.50000000
 0.75000000 0.00000000 0.62500000
 0.75000000 0.00000000 0.75000000
 0.75000000 0.00000000 0.87500000
 0.75000000 0.12500000 0.00000000
 0.75000000 0.12500000 0.12500000
 0.75000000 0.12500000 0.25000000
 0.75000000 0.12500000 0.37500000
 0.75000000 0.12500000 0.50000000
 0.75000000 0.12500000 0.62500000
 0.75000000 0.12500000 0.75000000
 0.75000000 0.12500000 0.87500000
 0.75000000 0.25000000 0.00000000
 0.75000000 0.25000000 0.12500000
 0.75000000 0.25000000 0.25000000
 0.75000000 0.25000000 0.37500000
 0.75000000 0.25000000 0.50000000
 0.75000000 0.25000000 0.62500000
 0.75000000 0.25000000 0.75000000
 0.75000000 0.25000000 0.87500000
 0.75000000 0.37500000 0.00000000
 0.75000000 0.37500000 0.12500000
 0.75000000 0.37500000 0.25000000
 0.75000000 0.37500000 0.37500000
 0.75000000 0.37500000 0.50000000
 0.75000000 0.37500000 0.62500000
 0.75000000 0.37500000 0.75000000
 0.75000000 0.37500000 0.87500000
 0.75000000 0.50000000 0.00000000
 0.75000000 0.50000000 0.12500000
 0.75000000 0.50000000 0.25000000
 0.75000000 0.50000000 0.37500000
 0.75000000 0.50000000 0.50000000
 0.75000000 0.50000000 0.62500000
 0.75000000 0.50000000 0.75000000
 0.75000000 0.50000000 0.87500000
 0.75000000 0.62500000 0.00000000
 0.75000000 0.62500000 0.12500000
 0.75000000 0.62500000 0.25000000
 0.75000000 0.62500000 0.37500000
 0.75000000 0.62500000 0.50000000
 0.75000000 0.62500000 0.62500000
 0.75000000 0.62500000 0.75000000
 0.75000000 0.62500000 0.87500000
 0.75000000 0.75000000 0.00000000
 0.75000000 0.75000000 0.12500000
 0.75000000 0.75000000 0.25000000
 0.75000000 0.75000000 0.37500000
 0.75000000 0.75000000 0.50000000
 0.75000000 0.75000000 0.62500000
 0.75000000 0.75000000 0.75000000
 0.75000000 0.75000000 0.87500000
 0.75000000 0.87500000 0.00000000
 0.75000000 0.87500000 0.12500000
 0.75000000 0.87500000 0.25000000
 0.75000000 0.87500000 0.37500000
 0.75000000 0.87500000 0.50000000
 0.75000000 0.87500000 0.62500000
 0.75000000 0.87500000 0.75000000
 0.75000000 0.87500000 0.87500000
 0.87500000 0.00000000 0.00000000
 0.87500000 0.00000000 0.12500000
 0.87500000 0.00000000 0.25000000
 0.87500000 0.00000000 0.37500000
 0.87500000 0.00000000 0.50000000
 0.87500000 0.00000000 0.62500000
 0.87500000 0.00000000 0.75000000
 0.87500000 0.00000000 0.87500000
 0.87500000 0.12500000 0.00000000
 0.87500000 0.12500000 0.12500000
 0.87500000 0.12500000 0.25000000
 0.87500000 0.12500000 0.37500000
 0.87500000 0.12500000 0.50000000
 0.87500000 0.12500000 0.62500000
 0.87500000 0.12500000 0.75000000
 0.87500000 0.12500000 0.87500000
 0.87500000 0.25000000 0.00000000
 0.87500000 0.25000000 0.12500000
 0.87500000 0.25000000 0.25000000
 0.87500000 0.25000000 0.37500000
 0.87500000 0.25000000 0.50000000
 0.87500000 0.25000000 0.62500000
 0.87500000 0.25000000 0.75000000
 0.87500000 0.25000000 0.87500000
 0.87500000 0.37500000 0.00000000
 0.87500000 0.37500000 0.12500000
 0.87500000 0.37500000 0.25000000
 0.87500000 0.37500000 0.37500000
 0.87500000 0.37500000 0.50000000
 0.87500000 0.37500000 0.62500000
 0.87500000 0.37500000 0.75000000
 0.87500000 0.37500000 0.87500000
 0.87500000 0.50000000 0.00000000
 0.87500000 0.50000000 0.12500000
 0.87500000 0.50000000 0.25000000
 0.87500000 0.50000000 0.37500000
 0.87500000 0.50000000 0.50000000
 0.87500000 0.50000000 0.62500000
 0.87500000 0.50000000 0.75000000
 0.87500000 0.50000000 0.87500000
 0.87500000 0.62500000 0.00000000
 0.87500000 0.62500000 0.12500000
 0.87500000 0.62500000 0.25000000
 0.87500000 0.62500000 0.37500000
 0.87500000 0.62500000 0.50000000
 0.87500000 0.62500000 0.62500000
 0.87500000 0.62500000 0.75000000
 0.87500000 0.62500000 0.87500000
 0.87500000 0.75000000 0.00000000
 0.87500000 0.75000000 0.12500000
 0.87500000 0.75000000 0.25000000
 0.87500000 0.75000000 0.37500000
 0.87500000 0.75000000 0.50000000
 0.87500000 0.75000000 0.62500000
 0.87500000 0.75000000 0.75000000
 0.87500000 0.75000000 0.87500000
 0.87500000 0.87500000 0.00000000
 0.87500000 0.87500000 0.12500000
 0.87500000 0.87500000 0.25000000
 0.87500000 0.87500000 0.37500000
 0.87500000 0.87500000 0.50000000
 0.87500000 0.87500000 0.62500000
 0.87500000 0.87500000 0.75000000
 0.87500000 0.87500000 0.87500000
end kpoints
