# spn_formatted = true
# restart = default

# restart = plot 
# wannier_plot = true
# wannier_plot_list = 1 2 3 4

shc_freq_scan = false
shc_alpha = 1
shc_beta = 2
shc_gamma = 3

# kpath = true
# kpath_task = bands+shc
# kpath_bands_colour = shc
# kpath_num_points = 400
# kubo_adpt_smr = false
# kubo_smr_fixed_en_width = 1
# fermi_energy = 6.9

# begin kpoint_path
# G  0.00  0.00  0.00    Z  0.50  0.50  0.50
# Z  0.50  0.50  0.50    F  0.50  0.50  0.00
# F  0.50  0.50  0.00    G  0.00  0.00  0.00
# G  0.00  0.00  0.00    L  0.50  0.00  0.00
# end kpoint_path

# kslice = true
# kslice_task = shc+fermi_lines
# kslice_2dkmesh = 400
# kslice_corner = 0.0  0.0  0.0
# kslice_b1 = 1.00  0.00  0.00
# kslice_b2 = 0.3535533905932738  1.0606601717798214  0.00

berry = true
berry_task = eval_shc
berry_kmesh = 16 # 30
berry_curv_unit = ang2
berry_curv_adpt_kmesh = 4
berry_curv_adpt_kmesh_thresh = 100.0

fermi_energy_min = -7.0 
fermi_energy_max = 13.0 
fermi_energy_step = 0.05

num_bands         =   90
num_wann          =   40

dis_win_min       =  -8.0d0
dis_win_max       =  14.0d0
dis_froz_min      =  -8.0d0
dis_froz_max      =  14.0d0
# dis_num_iter      =  8000
dis_conv_tol      = 1.0e-10
conv_tol          = 1.0e-10
conv_window       = 10
num_iter          = 9000
guiding_centres = true

spinors = true
begin projections
Bi: s;p
Se: s;p
end projections

begin unit_cell_cart
Ang
 2.09568325 -1.20994329 9.97622927
 0.00000000  2.41988657 9.97622927
-2.09568325 -1.20994329 9.97622927
end unit_cell_cart

begin atoms_cart
Ang
 Se 0.00000000 0.00000000  0.000000000
 Se 0.00000000 0.00000000  6.442648844
 Bi 0.00000000 0.00000000 11.923902056
 Bi 0.00000000 0.00000000 18.004785754
 Se 0.00000000 0.00000000 23.486038966
end atoms_cart
 
# kmesh_tol = 0.00001
mp_grid           = 8  8  8

begin kpoints
 0.00000000 0.00000000 0.00000000
 0.00000000 0.00000000 0.12500000
 0.00000000 0.00000000 0.25000000
 0.00000000 0.00000000 0.37500000
 0.00000000 0.00000000 0.50000000
 0.00000000 0.00000000 0.62500000
 0.00000000 0.00000000 0.75000000
 0.00000000 0.00000000 0.87500000
 0.00000000 0.12500000 0.00000000
 0.00000000 0.12500000 0.12500000
 0.00000000 0.12500000 0.25000000
 0.00000000 0.12500000 0.37500000
 0.00000000 0.12500000 0.50000000
 0.00000000 0.12500000 0.62500000
 0.00000000 0.12500000 0.75000000
 0.00000000 0.12500000 0.87500000
 0.00000000 0.25000000 0.00000000
 0.00000000 0.25000000 0.12500000
 0.00000000 0.25000000 0.25000000
 0.00000000 0.25000000 0.37500000
 0.00000000 0.25000000 0.50000000
 0.00000000 0.25000000 0.62500000
 0.00000000 0.25000000 0.75000000
 0.00000000 0.25000000 0.87500000
 0.00000000 0.37500000 0.00000000
 0.00000000 0.37500000 0.12500000
 0.00000000 0.37500000 0.25000000
 0.00000000 0.37500000 0.37500000
 0.00000000 0.37500000 0.50000000
 0.00000000 0.37500000 0.62500000
 0.00000000 0.37500000 0.75000000
 0.00000000 0.37500000 0.87500000
 0.00000000 0.50000000 0.00000000
 0.00000000 0.50000000 0.12500000
 0.00000000 0.50000000 0.25000000
 0.00000000 0.50000000 0.37500000
 0.00000000 0.50000000 0.50000000
 0.00000000 0.50000000 0.62500000
 0.00000000 0.50000000 0.75000000
 0.00000000 0.50000000 0.87500000
 0.00000000 0.62500000 0.00000000
 0.00000000 0.62500000 0.12500000
 0.00000000 0.62500000 0.25000000
 0.00000000 0.62500000 0.37500000
 0.00000000 0.62500000 0.50000000
 0.00000000 0.62500000 0.62500000
 0.00000000 0.62500000 0.75000000
 0.00000000 0.62500000 0.87500000
 0.00000000 0.75000000 0.00000000
 0.00000000 0.75000000 0.12500000
 0.00000000 0.75000000 0.25000000
 0.00000000 0.75000000 0.37500000
 0.00000000 0.75000000 0.50000000
 0.00000000 0.75000000 0.62500000
 0.00000000 0.75000000 0.75000000
 0.00000000 0.75000000 0.87500000
 0.00000000 0.87500000 0.00000000
 0.00000000 0.87500000 0.12500000
 0.00000000 0.87500000 0.25000000
 0.00000000 0.87500000 0.37500000
 0.00000000 0.87500000 0.50000000
 0.00000000 0.87500000 0.62500000
 0.00000000 0.87500000 0.75000000
 0.00000000 0.87500000 0.87500000
 0.12500000 0.00000000 0.00000000
 0.12500000 0.00000000 0.12500000
 0.12500000 0.00000000 0.25000000
 0.12500000 0.00000000 0.37500000
 0.12500000 0.00000000 0.50000000
 0.12500000 0.00000000 0.62500000
 0.12500000 0.00000000 0.75000000
 0.12500000 0.00000000 0.87500000
 0.12500000 0.12500000 0.00000000
 0.12500000 0.12500000 0.12500000
 0.12500000 0.12500000 0.25000000
 0.12500000 0.12500000 0.37500000
 0.12500000 0.12500000 0.50000000
 0.12500000 0.12500000 0.62500000
 0.12500000 0.12500000 0.75000000
 0.12500000 0.12500000 0.87500000
 0.12500000 0.25000000 0.00000000
 0.12500000 0.25000000 0.12500000
 0.12500000 0.25000000 0.25000000
 0.12500000 0.25000000 0.37500000
 0.12500000 0.25000000 0.50000000
 0.12500000 0.25000000 0.62500000
 0.12500000 0.25000000 0.75000000
 0.12500000 0.25000000 0.87500000
 0.12500000 0.37500000 0.00000000
 0.12500000 0.37500000 0.12500000
 0.12500000 0.37500000 0.25000000
 0.12500000 0.37500000 0.37500000
 0.12500000 0.37500000 0.50000000
 0.12500000 0.37500000 0.62500000
 0.12500000 0.37500000 0.75000000
 0.12500000 0.37500000 0.87500000
 0.12500000 0.50000000 0.00000000
 0.12500000 0.50000000 0.12500000
 0.12500000 0.50000000 0.25000000
 0.12500000 0.50000000 0.37500000
 0.12500000 0.50000000 0.50000000
 0.12500000 0.50000000 0.62500000
 0.12500000 0.50000000 0.75000000
 0.12500000 0.50000000 0.87500000
 0.12500000 0.62500000 0.00000000
 0.12500000 0.62500000 0.12500000
 0.12500000 0.62500000 0.25000000
 0.12500000 0.62500000 0.37500000
 0.12500000 0.62500000 0.50000000
 0.12500000 0.62500000 0.62500000
 0.12500000 0.62500000 0.75000000
 0.12500000 0.62500000 0.87500000
 0.12500000 0.75000000 0.00000000
 0.12500000 0.75000000 0.12500000
 0.12500000 0.75000000 0.25000000
 0.12500000 0.75000000 0.37500000
 0.12500000 0.75000000 0.50000000
 0.12500000 0.75000000 0.62500000
 0.12500000 0.75000000 0.75000000
 0.12500000 0.75000000 0.87500000
 0.12500000 0.87500000 0.00000000
 0.12500000 0.87500000 0.12500000
 0.12500000 0.87500000 0.25000000
 0.12500000 0.87500000 0.37500000
 0.12500000 0.87500000 0.50000000
 0.12500000 0.87500000 0.62500000
 0.12500000 0.87500000 0.75000000
 0.12500000 0.87500000 0.87500000
 0.25000000 0.00000000 0.00000000
 0.25000000 0.00000000 0.12500000
 0.25000000 0.00000000 0.25000000
 0.25000000 0.00000000 0.37500000
 0.25000000 0.00000000 0.50000000
 0.25000000 0.00000000 0.62500000
 0.25000000 0.00000000 0.75000000
 0.25000000 0.00000000 0.87500000
 0.25000000 0.12500000 0.00000000
 0.25000000 0.12500000 0.12500000
 0.25000000 0.12500000 0.25000000
 0.25000000 0.12500000 0.37500000
 0.25000000 0.12500000 0.50000000
 0.25000000 0.12500000 0.62500000
 0.25000000 0.12500000 0.75000000
 0.25000000 0.12500000 0.87500000
 0.25000000 0.25000000 0.00000000
 0.25000000 0.25000000 0.12500000
 0.25000000 0.25000000 0.25000000
 0.25000000 0.25000000 0.37500000
 0.25000000 0.25000000 0.50000000
 0.25000000 0.25000000 0.62500000
 0.25000000 0.25000000 0.75000000
 0.25000000 0.25000000 0.87500000
 0.25000000 0.37500000 0.00000000
 0.25000000 0.37500000 0.12500000
 0.25000000 0.37500000 0.25000000
 0.25000000 0.37500000 0.37500000
 0.25000000 0.37500000 0.50000000
 0.25000000 0.37500000 0.62500000
 0.25000000 0.37500000 0.75000000
 0.25000000 0.37500000 0.87500000
 0.25000000 0.50000000 0.00000000
 0.25000000 0.50000000 0.12500000
 0.25000000 0.50000000 0.25000000
 0.25000000 0.50000000 0.37500000
 0.25000000 0.50000000 0.50000000
 0.25000000 0.50000000 0.62500000
 0.25000000 0.50000000 0.75000000
 0.25000000 0.50000000 0.87500000
 0.25000000 0.62500000 0.00000000
 0.25000000 0.62500000 0.12500000
 0.25000000 0.62500000 0.25000000
 0.25000000 0.62500000 0.37500000
 0.25000000 0.62500000 0.50000000
 0.25000000 0.62500000 0.62500000
 0.25000000 0.62500000 0.75000000
 0.25000000 0.62500000 0.87500000
 0.25000000 0.75000000 0.00000000
 0.25000000 0.75000000 0.12500000
 0.25000000 0.75000000 0.25000000
 0.25000000 0.75000000 0.37500000
 0.25000000 0.75000000 0.50000000
 0.25000000 0.75000000 0.62500000
 0.25000000 0.75000000 0.75000000
 0.25000000 0.75000000 0.87500000
 0.25000000 0.87500000 0.00000000
 0.25000000 0.87500000 0.12500000
 0.25000000 0.87500000 0.25000000
 0.25000000 0.87500000 0.37500000
 0.25000000 0.87500000 0.50000000
 0.25000000 0.87500000 0.62500000
 0.25000000 0.87500000 0.75000000
 0.25000000 0.87500000 0.87500000
 0.37500000 0.00000000 0.00000000
 0.37500000 0.00000000 0.12500000
 0.37500000 0.00000000 0.25000000
 0.37500000 0.00000000 0.37500000
 0.37500000 0.00000000 0.50000000
 0.37500000 0.00000000 0.62500000
 0.37500000 0.00000000 0.75000000
 0.37500000 0.00000000 0.87500000
 0.37500000 0.12500000 0.00000000
 0.37500000 0.12500000 0.12500000
 0.37500000 0.12500000 0.25000000
 0.37500000 0.12500000 0.37500000
 0.37500000 0.12500000 0.50000000
 0.37500000 0.12500000 0.62500000
 0.37500000 0.12500000 0.75000000
 0.37500000 0.12500000 0.87500000
 0.37500000 0.25000000 0.00000000
 0.37500000 0.25000000 0.12500000
 0.37500000 0.25000000 0.25000000
 0.37500000 0.25000000 0.37500000
 0.37500000 0.25000000 0.50000000
 0.37500000 0.25000000 0.62500000
 0.37500000 0.25000000 0.75000000
 0.37500000 0.25000000 0.87500000
 0.37500000 0.37500000 0.00000000
 0.37500000 0.37500000 0.12500000
 0.37500000 0.37500000 0.25000000
 0.37500000 0.37500000 0.37500000
 0.37500000 0.37500000 0.50000000
 0.37500000 0.37500000 0.62500000
 0.37500000 0.37500000 0.75000000
 0.37500000 0.37500000 0.87500000
 0.37500000 0.50000000 0.00000000
 0.37500000 0.50000000 0.12500000
 0.37500000 0.50000000 0.25000000
 0.37500000 0.50000000 0.37500000
 0.37500000 0.50000000 0.50000000
 0.37500000 0.50000000 0.62500000
 0.37500000 0.50000000 0.75000000
 0.37500000 0.50000000 0.87500000
 0.37500000 0.62500000 0.00000000
 0.37500000 0.62500000 0.12500000
 0.37500000 0.62500000 0.25000000
 0.37500000 0.62500000 0.37500000
 0.37500000 0.62500000 0.50000000
 0.37500000 0.62500000 0.62500000
 0.37500000 0.62500000 0.75000000
 0.37500000 0.62500000 0.87500000
 0.37500000 0.75000000 0.00000000
 0.37500000 0.75000000 0.12500000
 0.37500000 0.75000000 0.25000000
 0.37500000 0.75000000 0.37500000
 0.37500000 0.75000000 0.50000000
 0.37500000 0.75000000 0.62500000
 0.37500000 0.75000000 0.75000000
 0.37500000 0.75000000 0.87500000
 0.37500000 0.87500000 0.00000000
 0.37500000 0.87500000 0.12500000
 0.37500000 0.87500000 0.25000000
 0.37500000 0.87500000 0.37500000
 0.37500000 0.87500000 0.50000000
 0.37500000 0.87500000 0.62500000
 0.37500000 0.87500000 0.75000000
 0.37500000 0.87500000 0.87500000
 0.50000000 0.00000000 0.00000000
 0.50000000 0.00000000 0.12500000
 0.50000000 0.00000000 0.25000000
 0.50000000 0.00000000 0.37500000
 0.50000000 0.00000000 0.50000000
 0.50000000 0.00000000 0.62500000
 0.50000000 0.00000000 0.75000000
 0.50000000 0.00000000 0.87500000
 0.50000000 0.12500000 0.00000000
 0.50000000 0.12500000 0.12500000
 0.50000000 0.12500000 0.25000000
 0.50000000 0.12500000 0.37500000
 0.50000000 0.12500000 0.50000000
 0.50000000 0.12500000 0.62500000
 0.50000000 0.12500000 0.75000000
 0.50000000 0.12500000 0.87500000
 0.50000000 0.25000000 0.00000000
 0.50000000 0.25000000 0.12500000
 0.50000000 0.25000000 0.25000000
 0.50000000 0.25000000 0.37500000
 0.50000000 0.25000000 0.50000000
 0.50000000 0.25000000 0.62500000
 0.50000000 0.25000000 0.75000000
 0.50000000 0.25000000 0.87500000
 0.50000000 0.37500000 0.00000000
 0.50000000 0.37500000 0.12500000
 0.50000000 0.37500000 0.25000000
 0.50000000 0.37500000 0.37500000
 0.50000000 0.37500000 0.50000000
 0.50000000 0.37500000 0.62500000
 0.50000000 0.37500000 0.75000000
 0.50000000 0.37500000 0.87500000
 0.50000000 0.50000000 0.00000000
 0.50000000 0.50000000 0.12500000
 0.50000000 0.50000000 0.25000000
 0.50000000 0.50000000 0.37500000
 0.50000000 0.50000000 0.50000000
 0.50000000 0.50000000 0.62500000
 0.50000000 0.50000000 0.75000000
 0.50000000 0.50000000 0.87500000
 0.50000000 0.62500000 0.00000000
 0.50000000 0.62500000 0.12500000
 0.50000000 0.62500000 0.25000000
 0.50000000 0.62500000 0.37500000
 0.50000000 0.62500000 0.50000000
 0.50000000 0.62500000 0.62500000
 0.50000000 0.62500000 0.75000000
 0.50000000 0.62500000 0.87500000
 0.50000000 0.75000000 0.00000000
 0.50000000 0.75000000 0.12500000
 0.50000000 0.75000000 0.25000000
 0.50000000 0.75000000 0.37500000
 0.50000000 0.75000000 0.50000000
 0.50000000 0.75000000 0.62500000
 0.50000000 0.75000000 0.75000000
 0.50000000 0.75000000 0.87500000
 0.50000000 0.87500000 0.00000000
 0.50000000 0.87500000 0.12500000
 0.50000000 0.87500000 0.25000000
 0.50000000 0.87500000 0.37500000
 0.50000000 0.87500000 0.50000000
 0.50000000 0.87500000 0.62500000
 0.50000000 0.87500000 0.75000000
 0.50000000 0.87500000 0.87500000
 0.62500000 0.00000000 0.00000000
 0.62500000 0.00000000 0.12500000
 0.62500000 0.00000000 0.25000000
 0.62500000 0.00000000 0.37500000
 0.62500000 0.00000000 0.50000000
 0.62500000 0.00000000 0.62500000
 0.62500000 0.00000000 0.75000000
 0.62500000 0.00000000 0.87500000
 0.62500000 0.12500000 0.00000000
 0.62500000 0.12500000 0.12500000
 0.62500000 0.12500000 0.25000000
 0.62500000 0.12500000 0.37500000
 0.62500000 0.12500000 0.50000000
 0.62500000 0.12500000 0.62500000
 0.62500000 0.12500000 0.75000000
 0.62500000 0.12500000 0.87500000
 0.62500000 0.25000000 0.00000000
 0.62500000 0.25000000 0.12500000
 0.62500000 0.25000000 0.25000000
 0.62500000 0.25000000 0.37500000
 0.62500000 0.25000000 0.50000000
 0.62500000 0.25000000 0.62500000
 0.62500000 0.25000000 0.75000000
 0.62500000 0.25000000 0.87500000
 0.62500000 0.37500000 0.00000000
 0.62500000 0.37500000 0.12500000
 0.62500000 0.37500000 0.25000000
 0.62500000 0.37500000 0.37500000
 0.62500000 0.37500000 0.50000000
 0.62500000 0.37500000 0.62500000
 0.62500000 0.37500000 0.75000000
 0.62500000 0.37500000 0.87500000
 0.62500000 0.50000000 0.00000000
 0.62500000 0.50000000 0.12500000
 0.62500000 0.50000000 0.25000000
 0.62500000 0.50000000 0.37500000
 0.62500000 0.50000000 0.50000000
 0.62500000 0.50000000 0.62500000
 0.62500000 0.50000000 0.75000000
 0.62500000 0.50000000 0.87500000
 0.62500000 0.62500000 0.00000000
 0.62500000 0.62500000 0.12500000
 0.62500000 0.62500000 0.25000000
 0.62500000 0.62500000 0.37500000
 0.62500000 0.62500000 0.50000000
 0.62500000 0.62500000 0.62500000
 0.62500000 0.62500000 0.75000000
 0.62500000 0.62500000 0.87500000
 0.62500000 0.75000000 0.00000000
 0.62500000 0.75000000 0.12500000
 0.62500000 0.75000000 0.25000000
 0.62500000 0.75000000 0.37500000
 0.62500000 0.75000000 0.50000000
 0.62500000 0.75000000 0.62500000
 0.62500000 0.75000000 0.75000000
 0.62500000 0.75000000 0.87500000
 0.62500000 0.87500000 0.00000000
 0.62500000 0.87500000 0.12500000
 0.62500000 0.87500000 0.25000000
 0.62500000 0.87500000 0.37500000
 0.62500000 0.87500000 0.50000000
 0.62500000 0.87500000 0.62500000
 0.62500000 0.87500000 0.75000000
 0.62500000 0.87500000 0.87500000
 0.75000000 0.00000000 0.00000000
 0.75000000 0.00000000 0.12500000
 0.75000000 0.00000000 0.25000000
 0.75000000 0.00000000 0.37500000
 0.75000000 0.00000000 0.50000000
 0.75000000 0.00000000 0.62500000
 0.75000000 0.00000000 0.75000000
 0.75000000 0.00000000 0.87500000
 0.75000000 0.12500000 0.00000000
 0.75000000 0.12500000 0.12500000
 0.75000000 0.12500000 0.25000000
 0.75000000 0.12500000 0.37500000
 0.75000000 0.12500000 0.50000000
 0.75000000 0.12500000 0.62500000
 0.75000000 0.12500000 0.75000000
 0.75000000 0.12500000 0.87500000
 0.75000000 0.25000000 0.00000000
 0.75000000 0.25000000 0.12500000
 0.75000000 0.25000000 0.25000000
 0.75000000 0.25000000 0.37500000
 0.75000000 0.25000000 0.50000000
 0.75000000 0.25000000 0.62500000
 0.75000000 0.25000000 0.75000000
 0.75000000 0.25000000 0.87500000
 0.75000000 0.37500000 0.00000000
 0.75000000 0.37500000 0.12500000
 0.75000000 0.37500000 0.25000000
 0.75000000 0.37500000 0.37500000
 0.75000000 0.37500000 0.50000000
 0.75000000 0.37500000 0.62500000
 0.75000000 0.37500000 0.75000000
 0.75000000 0.37500000 0.87500000
 0.75000000 0.50000000 0.00000000
 0.75000000 0.50000000 0.12500000
 0.75000000 0.50000000 0.25000000
 0.75000000 0.50000000 0.37500000
 0.75000000 0.50000000 0.50000000
 0.75000000 0.50000000 0.62500000
 0.75000000 0.50000000 0.75000000
 0.75000000 0.50000000 0.87500000
 0.75000000 0.62500000 0.00000000
 0.75000000 0.62500000 0.12500000
 0.75000000 0.62500000 0.25000000
 0.75000000 0.62500000 0.37500000
 0.75000000 0.62500000 0.50000000
 0.75000000 0.62500000 0.62500000
 0.75000000 0.62500000 0.75000000
 0.75000000 0.62500000 0.87500000
 0.75000000 0.75000000 0.00000000
 0.75000000 0.75000000 0.12500000
 0.75000000 0.75000000 0.25000000
 0.75000000 0.75000000 0.37500000
 0.75000000 0.75000000 0.50000000
 0.75000000 0.75000000 0.62500000
 0.75000000 0.75000000 0.75000000
 0.75000000 0.75000000 0.87500000
 0.75000000 0.87500000 0.00000000
 0.75000000 0.87500000 0.12500000
 0.75000000 0.87500000 0.25000000
 0.75000000 0.87500000 0.37500000
 0.75000000 0.87500000 0.50000000
 0.75000000 0.87500000 0.62500000
 0.75000000 0.87500000 0.75000000
 0.75000000 0.87500000 0.87500000
 0.87500000 0.00000000 0.00000000
 0.87500000 0.00000000 0.12500000
 0.87500000 0.00000000 0.25000000
 0.87500000 0.00000000 0.37500000
 0.87500000 0.00000000 0.50000000
 0.87500000 0.00000000 0.62500000
 0.87500000 0.00000000 0.75000000
 0.87500000 0.00000000 0.87500000
 0.87500000 0.12500000 0.00000000
 0.87500000 0.12500000 0.12500000
 0.87500000 0.12500000 0.25000000
 0.87500000 0.12500000 0.37500000
 0.87500000 0.12500000 0.50000000
 0.87500000 0.12500000 0.62500000
 0.87500000 0.12500000 0.75000000
 0.87500000 0.12500000 0.87500000
 0.87500000 0.25000000 0.00000000
 0.87500000 0.25000000 0.12500000
 0.87500000 0.25000000 0.25000000
 0.87500000 0.25000000 0.37500000
 0.87500000 0.25000000 0.50000000
 0.87500000 0.25000000 0.62500000
 0.87500000 0.25000000 0.75000000
 0.87500000 0.25000000 0.87500000
 0.87500000 0.37500000 0.00000000
 0.87500000 0.37500000 0.12500000
 0.87500000 0.37500000 0.25000000
 0.87500000 0.37500000 0.37500000
 0.87500000 0.37500000 0.50000000
 0.87500000 0.37500000 0.62500000
 0.87500000 0.37500000 0.75000000
 0.87500000 0.37500000 0.87500000
 0.87500000 0.50000000 0.00000000
 0.87500000 0.50000000 0.12500000
 0.87500000 0.50000000 0.25000000
 0.87500000 0.50000000 0.37500000
 0.87500000 0.50000000 0.50000000
 0.87500000 0.50000000 0.62500000
 0.87500000 0.50000000 0.75000000
 0.87500000 0.50000000 0.87500000
 0.87500000 0.62500000 0.00000000
 0.87500000 0.62500000 0.12500000
 0.87500000 0.62500000 0.25000000
 0.87500000 0.62500000 0.37500000
 0.87500000 0.62500000 0.50000000
 0.87500000 0.62500000 0.62500000
 0.87500000 0.62500000 0.75000000
 0.87500000 0.62500000 0.87500000
 0.87500000 0.75000000 0.00000000
 0.87500000 0.75000000 0.12500000
 0.87500000 0.75000000 0.25000000
 0.87500000 0.75000000 0.37500000
 0.87500000 0.75000000 0.50000000
 0.87500000 0.75000000 0.62500000
 0.87500000 0.75000000 0.75000000
 0.87500000 0.75000000 0.87500000
 0.87500000 0.87500000 0.00000000
 0.87500000 0.87500000 0.12500000
 0.87500000 0.87500000 0.25000000
 0.87500000 0.87500000 0.37500000
 0.87500000 0.87500000 0.50000000
 0.87500000 0.87500000 0.62500000
 0.87500000 0.87500000 0.75000000
 0.87500000 0.87500000 0.87500000
end kpoints
